
Gurobi 9.1.2 (linux64) logging started Thu Feb  3 10:11:16 2022

Changed value of parameter LogFile to lemke_square_cplex_v-(0, 0).log
   Prev:   Default: 
Changed value of parameter MIPFocus to 3
   Prev: 0  Min: 0  Max: 3  Default: 0
Changed value of parameter Threads to 1
   Prev: 0  Min: 0  Max: 1024  Default: 0
Warning: variable name "X[(7, 4),(7, 3)]" has a space
Warning: constraint name "flow-constr-t0-v(3, 0)" has a space
Warning: to let Gurobi read it back, use rlp format

Gurobi 9.1.2 (linux64) logging started Thu Feb  3 10:11:46 2022

Changed value of parameter LogFile to lemke_square_cplex_v-(0, 0).log
   Prev:   Default: 
Changed value of parameter MIPFocus to 3
   Prev: 0  Min: 0  Max: 3  Default: 0
Changed value of parameter Threads to 1
   Prev: 0  Min: 0  Max: 1024  Default: 0

Gurobi 9.1.2 (linux64) logging started Thu Feb  3 10:12:52 2022

Changed value of parameter LogFile to lemke_square_cplex_v-(0, 0).log
   Prev:   Default: 
Changed value of parameter MIPFocus to 3
   Prev: 0  Min: 0  Max: 3  Default: 0
Changed value of parameter Threads to 1
   Prev: 0  Min: 0  Max: 1024  Default: 0

Gurobi 9.1.2 (linux64) logging started Thu Feb  3 10:16:34 2022

Changed value of parameter LogFile to lemke_square_cplex_v-(0, 0).log
   Prev:   Default: 
Changed value of parameter MIPFocus to 3
   Prev: 0  Min: 0  Max: 3  Default: 0
Changed value of parameter Threads to 1
   Prev: 0  Min: 0  Max: 1024  Default: 0

Gurobi 9.1.2 (linux64) logging started Mon Feb  7 14:14:06 2022

Changed value of parameter LogFile to lemke_square_cplex_v-(0, 0).log
   Prev:   Default: 
Changed value of parameter MIPFocus to 3
   Prev: 0  Min: 0  Max: 3  Default: 0
Changed value of parameter Threads to 1
   Prev: 0  Min: 0  Max: 1024  Default: 0

Gurobi 9.1.2 (linux64) logging started Mon Feb  7 14:40:07 2022

Changed value of parameter LogFile to lemke_square_cplex_v-(0, 0).log
   Prev:   Default: 
Changed value of parameter MIPFocus to 3
   Prev: 0  Min: 0  Max: 3  Default: 0
Changed value of parameter Threads to 1
   Prev: 0  Min: 0  Max: 1024  Default: 0

Gurobi 9.1.2 (linux64) logging started Mon Feb  7 21:51:42 2022

Changed value of parameter LogFile to lemke_square_cplex_v-(0, 0).log
   Prev:   Default: 
Changed value of parameter MIPFocus to 3
   Prev: 0  Min: 0  Max: 3  Default: 0
Changed value of parameter Threads to 1
   Prev: 0  Min: 0  Max: 1024  Default: 0

Gurobi 9.1.2 (linux64) logging started Mon Feb  7 21:52:45 2022

Changed value of parameter LogFile to lemke_square_cplex_v-(0, 0).log
   Prev:   Default: 
Changed value of parameter MIPFocus to 3
   Prev: 0  Min: 0  Max: 3  Default: 0
Changed value of parameter Threads to 1
   Prev: 0  Min: 0  Max: 1024  Default: 0

Gurobi 9.1.2 (linux64) logging started Mon Feb  7 21:53:40 2022

Changed value of parameter LogFile to lemke_square_cplex_v-(0, 0).log
   Prev:   Default: 
Changed value of parameter MIPFocus to 3
   Prev: 0  Min: 0  Max: 3  Default: 0
Changed value of parameter Threads to 1
   Prev: 0  Min: 0  Max: 1024  Default: 0

Gurobi 9.1.2 (linux64) logging started Tue Feb  8 08:20:12 2022

Changed value of parameter LogFile to lemke_square_cplex_v-(0, 0).log
   Prev:   Default: 
Changed value of parameter MIPFocus to 3
   Prev: 0  Min: 0  Max: 3  Default: 0
Changed value of parameter Threads to 1
   Prev: 0  Min: 0  Max: 1024  Default: 0
Warning: variable name "X[(7, 4),(7, 3)]" has a space
Warning: constraint name "flow-constr-t0-v(3, 0)" has a space
Warning: to let Gurobi read it back, use rlp format
